letting n =  10
letting blocks =  [[1, 10], [2, 1], [2, 4], [2, 6], [3, 5], [3, 6], [3, 7], [4, 1], [4, 8], [4, 10], [5, 1], [5, 8], [6, 2], [6, 7], [6, 10], [7, 3], [7, 6], [8, 2], [8, 5], [8, 6], [9, 1], [9, 2], [9, 3], [9, 8], [9, 10], [10, 2], [10, 3], [10, 4]]
